\* Paris *\
Maximize
Objective_Function: AC + AT + BS + CA + CN + CP + JT + ML + MO + PC + SC + TE
 + TM
Subject To
_C1: 1.5 AC + AT + 2 BS + 2 CA + 2 CN + 2.5 CP + 1.5 JT + 3 ML + 2 MO
 + 0.75 PC + 1.5 SC + 4.5 TE + 2 TM <= 12
_C2: AC + 9.5 AT + 8 BS + 10 CA + 5 CN + 10 CP + JT + 12 ML + 11 MO + PC
 + 8.5 SC + 15.5 TE + 15 TM <= 65
_C3: - JT + MO = 0
_C4: - CN + CP = 0
_C5: CN - SC = 0
_C6: CA + TE = 2
_C7: CN + SC <= 1
_C8: TM = 1
_C9: - CP + ML = 0
Binaries
AC
AT
BS
CA
CN
CP
JT
ML
MO
PC
SC
TE
TM
End
